sat_in/bonus/04.wcnf
p wcnf 54 717 22
1 1 7 13 19 25 31 37 43 49 0
2 2 8 14 20 26 32 38 44 50 0
3 3 9 15 21 27 33 39 45 51 0
4 4 10 16 22 28 34 40 46 52 0
5 5 11 17 23 29 35 41 47 53 0
6 6 12 18 24 30 36 42 48 54 0
22 -1 -8 0
22 -1 -9 0
22 -1 -10 0
22 -1 -11 0
22 -1 -12 0
22 -2 -7 0
22 -2 -9 0
22 -2 -10 0
22 -2 -11 0
22 -2 -12 0
22 -3 -7 0
22 -3 -8 0
22 -3 -10 0
22 -3 -11 0
22 -3 -12 0
22 -4 -7 0
22 -4 -8 0
22 -4 -9 0
22 -4 -11 0
22 -4 -12 0
22 -5 -7 0
22 -5 -8 0
22 -5 -9 0
22 -5 -10 0
22 -5 -12 0
22 -6 -7 0
22 -6 -8 0
22 -6 -9 0
22 -6 -10 0
22 -6 -11 0
22 -1 -20 0
22 -1 -21 0
22 -1 -22 0
22 -1 -23 0
22 -1 -24 0
22 -2 -19 0
22 -2 -21 0
22 -2 -22 0
22 -2 -23 0
22 -2 -24 0
22 -3 -19 0
22 -3 -20 0
22 -3 -22 0
22 -3 -23 0
22 -3 -24 0
22 -4 -19 0
22 -4 -20 0
22 -4 -21 0
22 -4 -23 0
22 -4 -24 0
22 -5 -19 0
22 -5 -20 0
22 -5 -21 0
22 -5 -22 0
22 -5 -24 0
22 -6 -19 0
22 -6 -20 0
22 -6 -21 0
22 -6 -22 0
22 -6 -23 0
22 -1 -26 0
22 -1 -27 0
22 -1 -28 0
22 -1 -29 0
22 -1 -30 0
22 -2 -25 0
22 -2 -27 0
22 -2 -28 0
22 -2 -29 0
22 -2 -30 0
22 -3 -25 0
22 -3 -26 0
22 -3 -28 0
22 -3 -29 0
22 -3 -30 0
22 -4 -25 0
22 -4 -26 0
22 -4 -27 0
22 -4 -29 0
22 -4 -30 0
22 -5 -25 0
22 -5 -26 0
22 -5 -27 0
22 -5 -28 0
22 -5 -30 0
22 -6 -25 0
22 -6 -26 0
22 -6 -27 0
22 -6 -28 0
22 -6 -29 0
22 -1 -38 0
22 -1 -39 0
22 -1 -40 0
22 -1 -41 0
22 -1 -42 0
22 -2 -37 0
22 -2 -39 0
22 -2 -40 0
22 -2 -41 0
22 -2 -42 0
22 -3 -37 0
22 -3 -38 0
22 -3 -40 0
22 -3 -41 0
22 -3 -42 0
22 -4 -37 0
22 -4 -38 0
22 -4 -39 0
22 -4 -41 0
22 -4 -42 0
22 -5 -37 0
22 -5 -38 0
22 -5 -39 0
22 -5 -40 0
22 -5 -42 0
22 -6 -37 0
22 -6 -38 0
22 -6 -39 0
22 -6 -40 0
22 -6 -41 0
22 -7 -20 0
22 -7 -21 0
22 -7 -22 0
22 -7 -23 0
22 -7 -24 0
22 -8 -19 0
22 -8 -21 0
22 -8 -22 0
22 -8 -23 0
22 -8 -24 0
22 -9 -19 0
22 -9 -20 0
22 -9 -22 0
22 -9 -23 0
22 -9 -24 0
22 -10 -19 0
22 -10 -20 0
22 -10 -21 0
22 -10 -23 0
22 -10 -24 0
22 -11 -19 0
22 -11 -20 0
22 -11 -21 0
22 -11 -22 0
22 -11 -24 0
22 -12 -19 0
22 -12 -20 0
22 -12 -21 0
22 -12 -22 0
22 -12 -23 0
22 -7 -32 0
22 -7 -33 0
22 -7 -34 0
22 -7 -35 0
22 -7 -36 0
22 -8 -31 0
22 -8 -33 0
22 -8 -34 0
22 -8 -35 0
22 -8 -36 0
22 -9 -31 0
22 -9 -32 0
22 -9 -34 0
22 -9 -35 0
22 -9 -36 0
22 -10 -31 0
22 -10 -32 0
22 -10 -33 0
22 -10 -35 0
22 -10 -36 0
22 -11 -31 0
22 -11 -32 0
22 -11 -33 0
22 -11 -34 0
22 -11 -36 0
22 -12 -31 0
22 -12 -32 0
22 -12 -33 0
22 -12 -34 0
22 -12 -35 0
22 -7 -38 0
22 -7 -39 0
22 -7 -40 0
22 -7 -41 0
22 -7 -42 0
22 -8 -37 0
22 -8 -39 0
22 -8 -40 0
22 -8 -41 0
22 -8 -42 0
22 -9 -37 0
22 -9 -38 0
22 -9 -40 0
22 -9 -41 0
22 -9 -42 0
22 -10 -37 0
22 -10 -38 0
22 -10 -39 0
22 -10 -41 0
22 -10 -42 0
22 -11 -37 0
22 -11 -38 0
22 -11 -39 0
22 -11 -40 0
22 -11 -42 0
22 -12 -37 0
22 -12 -38 0
22 -12 -39 0
22 -12 -40 0
22 -12 -41 0
22 -13 -20 0
22 -13 -21 0
22 -13 -22 0
22 -13 -23 0
22 -13 -24 0
22 -14 -19 0
22 -14 -21 0
22 -14 -22 0
22 -14 -23 0
22 -14 -24 0
22 -15 -19 0
22 -15 -20 0
22 -15 -22 0
22 -15 -23 0
22 -15 -24 0
22 -16 -19 0
22 -16 -20 0
22 -16 -21 0
22 -16 -23 0
22 -16 -24 0
22 -17 -19 0
22 -17 -20 0
22 -17 -21 0
22 -17 -22 0
22 -17 -24 0
22 -18 -19 0
22 -18 -20 0
22 -18 -21 0
22 -18 -22 0
22 -18 -23 0
22 -13 -50 0
22 -13 -51 0
22 -13 -52 0
22 -13 -53 0
22 -13 -54 0
22 -14 -49 0
22 -14 -51 0
22 -14 -52 0
22 -14 -53 0
22 -14 -54 0
22 -15 -49 0
22 -15 -50 0
22 -15 -52 0
22 -15 -53 0
22 -15 -54 0
22 -16 -49 0
22 -16 -50 0
22 -16 -51 0
22 -16 -53 0
22 -16 -54 0
22 -17 -49 0
22 -17 -50 0
22 -17 -51 0
22 -17 -52 0
22 -17 -54 0
22 -18 -49 0
22 -18 -50 0
22 -18 -51 0
22 -18 -52 0
22 -18 -53 0
22 -25 -32 0
22 -25 -33 0
22 -25 -34 0
22 -25 -35 0
22 -25 -36 0
22 -26 -31 0
22 -26 -33 0
22 -26 -34 0
22 -26 -35 0
22 -26 -36 0
22 -27 -31 0
22 -27 -32 0
22 -27 -34 0
22 -27 -35 0
22 -27 -36 0
22 -28 -31 0
22 -28 -32 0
22 -28 -33 0
22 -28 -35 0
22 -28 -36 0
22 -29 -31 0
22 -29 -32 0
22 -29 -33 0
22 -29 -34 0
22 -29 -36 0
22 -30 -31 0
22 -30 -32 0
22 -30 -33 0
22 -30 -34 0
22 -30 -35 0
22 -25 -50 0
22 -25 -51 0
22 -25 -52 0
22 -25 -53 0
22 -25 -54 0
22 -26 -49 0
22 -26 -51 0
22 -26 -52 0
22 -26 -53 0
22 -26 -54 0
22 -27 -49 0
22 -27 -50 0
22 -27 -52 0
22 -27 -53 0
22 -27 -54 0
22 -28 -49 0
22 -28 -50 0
22 -28 -51 0
22 -28 -53 0
22 -28 -54 0
22 -29 -49 0
22 -29 -50 0
22 -29 -51 0
22 -29 -52 0
22 -29 -54 0
22 -30 -49 0
22 -30 -50 0
22 -30 -51 0
22 -30 -52 0
22 -30 -53 0
22 -37 -50 0
22 -37 -51 0
22 -37 -52 0
22 -37 -53 0
22 -37 -54 0
22 -38 -49 0
22 -38 -51 0
22 -38 -52 0
22 -38 -53 0
22 -38 -54 0
22 -39 -49 0
22 -39 -50 0
22 -39 -52 0
22 -39 -53 0
22 -39 -54 0
22 -40 -49 0
22 -40 -50 0
22 -40 -51 0
22 -40 -53 0
22 -40 -54 0
22 -41 -49 0
22 -41 -50 0
22 -41 -51 0
22 -41 -52 0
22 -41 -54 0
22 -42 -49 0
22 -42 -50 0
22 -42 -51 0
22 -42 -52 0
22 -42 -53 0
22 -1 -7 0
22 -1 -13 0
22 -1 -19 0
22 -1 -25 0
22 -1 -31 0
22 -1 -37 0
22 -1 -43 0
22 -1 -49 0
22 -2 -8 0
22 -2 -14 0
22 -2 -20 0
22 -2 -26 0
22 -2 -32 0
22 -2 -38 0
22 -2 -44 0
22 -2 -50 0
22 -3 -9 0
22 -3 -15 0
22 -3 -21 0
22 -3 -27 0
22 -3 -33 0
22 -3 -39 0
22 -3 -45 0
22 -3 -51 0
22 -4 -10 0
22 -4 -16 0
22 -4 -22 0
22 -4 -28 0
22 -4 -34 0
22 -4 -40 0
22 -4 -46 0
22 -4 -52 0
22 -5 -11 0
22 -5 -17 0
22 -5 -23 0
22 -5 -29 0
22 -5 -35 0
22 -5 -41 0
22 -5 -47 0
22 -5 -53 0
22 -6 -12 0
22 -6 -18 0
22 -6 -24 0
22 -6 -30 0
22 -6 -36 0
22 -6 -42 0
22 -6 -48 0
22 -6 -54 0
22 -7 -13 0
22 -7 -19 0
22 -7 -25 0
22 -7 -31 0
22 -7 -37 0
22 -7 -43 0
22 -7 -49 0
22 -8 -14 0
22 -8 -20 0
22 -8 -26 0
22 -8 -32 0
22 -8 -38 0
22 -8 -44 0
22 -8 -50 0
22 -9 -15 0
22 -9 -21 0
22 -9 -27 0
22 -9 -33 0
22 -9 -39 0
22 -9 -45 0
22 -9 -51 0
22 -10 -16 0
22 -10 -22 0
22 -10 -28 0
22 -10 -34 0
22 -10 -40 0
22 -10 -46 0
22 -10 -52 0
22 -11 -17 0
22 -11 -23 0
22 -11 -29 0
22 -11 -35 0
22 -11 -41 0
22 -11 -47 0
22 -11 -53 0
22 -12 -18 0
22 -12 -24 0
22 -12 -30 0
22 -12 -36 0
22 -12 -42 0
22 -12 -48 0
22 -12 -54 0
22 -13 -19 0
22 -13 -25 0
22 -13 -31 0
22 -13 -37 0
22 -13 -43 0
22 -13 -49 0
22 -14 -20 0
22 -14 -26 0
22 -14 -32 0
22 -14 -38 0
22 -14 -44 0
22 -14 -50 0
22 -15 -21 0
22 -15 -27 0
22 -15 -33 0
22 -15 -39 0
22 -15 -45 0
22 -15 -51 0
22 -16 -22 0
22 -16 -28 0
22 -16 -34 0
22 -16 -40 0
22 -16 -46 0
22 -16 -52 0
22 -17 -23 0
22 -17 -29 0
22 -17 -35 0
22 -17 -41 0
22 -17 -47 0
22 -17 -53 0
22 -18 -24 0
22 -18 -30 0
22 -18 -36 0
22 -18 -42 0
22 -18 -48 0
22 -18 -54 0
22 -19 -25 0
22 -19 -31 0
22 -19 -37 0
22 -19 -43 0
22 -19 -49 0
22 -20 -26 0
22 -20 -32 0
22 -20 -38 0
22 -20 -44 0
22 -20 -50 0
22 -21 -27 0
22 -21 -33 0
22 -21 -39 0
22 -21 -45 0
22 -21 -51 0
22 -22 -28 0
22 -22 -34 0
22 -22 -40 0
22 -22 -46 0
22 -22 -52 0
22 -23 -29 0
22 -23 -35 0
22 -23 -41 0
22 -23 -47 0
22 -23 -53 0
22 -24 -30 0
22 -24 -36 0
22 -24 -42 0
22 -24 -48 0
22 -24 -54 0
22 -25 -31 0
22 -25 -37 0
22 -25 -43 0
22 -25 -49 0
22 -26 -32 0
22 -26 -38 0
22 -26 -44 0
22 -26 -50 0
22 -27 -33 0
22 -27 -39 0
22 -27 -45 0
22 -27 -51 0
22 -28 -34 0
22 -28 -40 0
22 -28 -46 0
22 -28 -52 0
22 -29 -35 0
22 -29 -41 0
22 -29 -47 0
22 -29 -53 0
22 -30 -36 0
22 -30 -42 0
22 -30 -48 0
22 -30 -54 0
22 -31 -37 0
22 -31 -43 0
22 -31 -49 0
22 -32 -38 0
22 -32 -44 0
22 -32 -50 0
22 -33 -39 0
22 -33 -45 0
22 -33 -51 0
22 -34 -40 0
22 -34 -46 0
22 -34 -52 0
22 -35 -41 0
22 -35 -47 0
22 -35 -53 0
22 -36 -42 0
22 -36 -48 0
22 -36 -54 0
22 -37 -43 0
22 -37 -49 0
22 -38 -44 0
22 -38 -50 0
22 -39 -45 0
22 -39 -51 0
22 -40 -46 0
22 -40 -52 0
22 -41 -47 0
22 -41 -53 0
22 -42 -48 0
22 -42 -54 0
22 -43 -49 0
22 -44 -50 0
22 -45 -51 0
22 -46 -52 0
22 -47 -53 0
22 -48 -54 0
22 -1 -2 0
22 -1 -3 0
22 -1 -4 0
22 -1 -5 0
22 -1 -6 0
22 -2 -3 0
22 -2 -4 0
22 -2 -5 0
22 -2 -6 0
22 -3 -4 0
22 -3 -5 0
22 -3 -6 0
22 -4 -5 0
22 -4 -6 0
22 -5 -6 0
22 -7 -8 0
22 -7 -9 0
22 -7 -10 0
22 -7 -11 0
22 -7 -12 0
22 -8 -9 0
22 -8 -10 0
22 -8 -11 0
22 -8 -12 0
22 -9 -10 0
22 -9 -11 0
22 -9 -12 0
22 -10 -11 0
22 -10 -12 0
22 -11 -12 0
22 -13 -14 0
22 -13 -15 0
22 -13 -16 0
22 -13 -17 0
22 -13 -18 0
22 -14 -15 0
22 -14 -16 0
22 -14 -17 0
22 -14 -18 0
22 -15 -16 0
22 -15 -17 0
22 -15 -18 0
22 -16 -17 0
22 -16 -18 0
22 -17 -18 0
22 -19 -20 0
22 -19 -21 0
22 -19 -22 0
22 -19 -23 0
22 -19 -24 0
22 -20 -21 0
22 -20 -22 0
22 -20 -23 0
22 -20 -24 0
22 -21 -22 0
22 -21 -23 0
22 -21 -24 0
22 -22 -23 0
22 -22 -24 0
22 -23 -24 0
22 -25 -26 0
22 -25 -27 0
22 -25 -28 0
22 -25 -29 0
22 -25 -30 0
22 -26 -27 0
22 -26 -28 0
22 -26 -29 0
22 -26 -30 0
22 -27 -28 0
22 -27 -29 0
22 -27 -30 0
22 -28 -29 0
22 -28 -30 0
22 -29 -30 0
22 -31 -32 0
22 -31 -33 0
22 -31 -34 0
22 -31 -35 0
22 -31 -36 0
22 -32 -33 0
22 -32 -34 0
22 -32 -35 0
22 -32 -36 0
22 -33 -34 0
22 -33 -35 0
22 -33 -36 0
22 -34 -35 0
22 -34 -36 0
22 -35 -36 0
22 -37 -38 0
22 -37 -39 0
22 -37 -40 0
22 -37 -41 0
22 -37 -42 0
22 -38 -39 0
22 -38 -40 0
22 -38 -41 0
22 -38 -42 0
22 -39 -40 0
22 -39 -41 0
22 -39 -42 0
22 -40 -41 0
22 -40 -42 0
22 -41 -42 0
22 -43 -44 0
22 -43 -45 0
22 -43 -46 0
22 -43 -47 0
22 -43 -48 0
22 -44 -45 0
22 -44 -46 0
22 -44 -47 0
22 -44 -48 0
22 -45 -46 0
22 -45 -47 0
22 -45 -48 0
22 -46 -47 0
22 -46 -48 0
22 -47 -48 0
22 -49 -50 0
22 -49 -51 0
22 -49 -52 0
22 -49 -53 0
22 -49 -54 0
22 -50 -51 0
22 -50 -52 0
22 -50 -53 0
22 -50 -54 0
22 -51 -52 0
22 -51 -53 0
22 -51 -54 0
22 -52 -53 0
22 -52 -54 0
22 -53 -54 0
