sat_in/task3/04.cnf
p cnf 36 346
1 5 9 13 17 21 25 29 33 0
2 6 10 14 18 22 26 30 34 0
3 7 11 15 19 23 27 31 35 0
4 8 12 16 20 24 28 32 36 0
-1 -6 0
-1 -7 0
-1 -8 0
-2 -5 0
-2 -7 0
-2 -8 0
-3 -5 0
-3 -6 0
-3 -8 0
-4 -5 0
-4 -6 0
-4 -7 0
-1 -14 0
-1 -15 0
-1 -16 0
-2 -13 0
-2 -15 0
-2 -16 0
-3 -13 0
-3 -14 0
-3 -16 0
-4 -13 0
-4 -14 0
-4 -15 0
-1 -18 0
-1 -19 0
-1 -20 0
-2 -17 0
-2 -19 0
-2 -20 0
-3 -17 0
-3 -18 0
-3 -20 0
-4 -17 0
-4 -18 0
-4 -19 0
-1 -26 0
-1 -27 0
-1 -28 0
-2 -25 0
-2 -27 0
-2 -28 0
-3 -25 0
-3 -26 0
-3 -28 0
-4 -25 0
-4 -26 0
-4 -27 0
-5 -14 0
-5 -15 0
-5 -16 0
-6 -13 0
-6 -15 0
-6 -16 0
-7 -13 0
-7 -14 0
-7 -16 0
-8 -13 0
-8 -14 0
-8 -15 0
-5 -22 0
-5 -23 0
-5 -24 0
-6 -21 0
-6 -23 0
-6 -24 0
-7 -21 0
-7 -22 0
-7 -24 0
-8 -21 0
-8 -22 0
-8 -23 0
-5 -26 0
-5 -27 0
-5 -28 0
-6 -25 0
-6 -27 0
-6 -28 0
-7 -25 0
-7 -26 0
-7 -28 0
-8 -25 0
-8 -26 0
-8 -27 0
-9 -14 0
-9 -15 0
-9 -16 0
-10 -13 0
-10 -15 0
-10 -16 0
-11 -13 0
-11 -14 0
-11 -16 0
-12 -13 0
-12 -14 0
-12 -15 0
-9 -34 0
-9 -35 0
-9 -36 0
-10 -33 0
-10 -35 0
-10 -36 0
-11 -33 0
-11 -34 0
-11 -36 0
-12 -33 0
-12 -34 0
-12 -35 0
-17 -22 0
-17 -23 0
-17 -24 0
-18 -21 0
-18 -23 0
-18 -24 0
-19 -21 0
-19 -22 0
-19 -24 0
-20 -21 0
-20 -22 0
-20 -23 0
-17 -34 0
-17 -35 0
-17 -36 0
-18 -33 0
-18 -35 0
-18 -36 0
-19 -33 0
-19 -34 0
-19 -36 0
-20 -33 0
-20 -34 0
-20 -35 0
-25 -34 0
-25 -35 0
-25 -36 0
-26 -33 0
-26 -35 0
-26 -36 0
-27 -33 0
-27 -34 0
-27 -36 0
-28 -33 0
-28 -34 0
-28 -35 0
-37 -6 0
-37 -7 0
-37 -8 0
-38 -5 0
-38 -7 0
-38 -8 0
-39 -5 0
-39 -6 0
-39 -8 0
-40 -5 0
-40 -6 0
-40 -7 0
-37 -10 0
-37 -11 0
-37 -12 0
-38 -9 0
-38 -11 0
-38 -12 0
-39 -9 0
-39 -10 0
-39 -12 0
-40 -9 0
-40 -10 0
-40 -11 0
-37 -14 0
-37 -15 0
-37 -16 0
-38 -13 0
-38 -15 0
-38 -16 0
-39 -13 0
-39 -14 0
-39 -16 0
-40 -13 0
-40 -14 0
-40 -15 0
-37 -18 0
-37 -19 0
-37 -20 0
-38 -17 0
-38 -19 0
-38 -20 0
-39 -17 0
-39 -18 0
-39 -20 0
-40 -17 0
-40 -18 0
-40 -19 0
-37 -22 0
-37 -23 0
-37 -24 0
-38 -21 0
-38 -23 0
-38 -24 0
-39 -21 0
-39 -22 0
-39 -24 0
-40 -21 0
-40 -22 0
-40 -23 0
-37 -26 0
-37 -27 0
-37 -28 0
-38 -25 0
-38 -27 0
-38 -28 0
-39 -25 0
-39 -26 0
-39 -28 0
-40 -25 0
-40 -26 0
-40 -27 0
-37 -30 0
-37 -31 0
-37 -32 0
-38 -29 0
-38 -31 0
-38 -32 0
-39 -29 0
-39 -30 0
-39 -32 0
-40 -29 0
-40 -30 0
-40 -31 0
-37 -34 0
-37 -35 0
-37 -36 0
-38 -33 0
-38 -35 0
-38 -36 0
-39 -33 0
-39 -34 0
-39 -36 0
-40 -33 0
-40 -34 0
-40 -35 0
-41 -10 0
-41 -11 0
-41 -12 0
-42 -9 0
-42 -11 0
-42 -12 0
-43 -9 0
-43 -10 0
-43 -12 0
-44 -9 0
-44 -10 0
-44 -11 0
-41 -14 0
-41 -15 0
-41 -16 0
-42 -13 0
-42 -15 0
-42 -16 0
-43 -13 0
-43 -14 0
-43 -16 0
-44 -13 0
-44 -14 0
-44 -15 0
-41 -18 0
-41 -19 0
-41 -20 0
-42 -17 0
-42 -19 0
-42 -20 0
-43 -17 0
-43 -18 0
-43 -20 0
-44 -17 0
-44 -18 0
-44 -19 0
-41 -22 0
-41 -23 0
-41 -24 0
-42 -21 0
-42 -23 0
-42 -24 0
-43 -21 0
-43 -22 0
-43 -24 0
-44 -21 0
-44 -22 0
-44 -23 0
-41 -26 0
-41 -27 0
-41 -28 0
-42 -25 0
-42 -27 0
-42 -28 0
-43 -25 0
-43 -26 0
-43 -28 0
-44 -25 0
-44 -26 0
-44 -27 0
-41 -30 0
-41 -31 0
-41 -32 0
-42 -29 0
-42 -31 0
-42 -32 0
-43 -29 0
-43 -30 0
-43 -32 0
-44 -29 0
-44 -30 0
-44 -31 0
-41 -34 0
-41 -35 0
-41 -36 0
-42 -33 0
-42 -35 0
-42 -36 0
-43 -33 0
-43 -34 0
-43 -36 0
-44 -33 0
-44 -34 0
-44 -35 0
-45 -14 0
-45 -15 0
-45 -16 0
-46 -13 0
-46 -15 0
-46 -16 0
-47 -13 0
-47 -14 0
-47 -16 0
-48 -13 0
-48 -14 0
-48 -15 0
-45 -18 0
-45 -19 0
-45 -20 0
-46 -17 0
-46 -19 0
-46 -20 0
-47 -17 0
-47 -18 0
-47 -20 0
-48 -17 0
-48 -18 0
-48 -19 0
-45 -22 0
-45 -23 0
-45 -24 0
-46 -21 0
-46 -23 0
-46 -24 0
-47 -21 0
-47 -22 0
-47 -24 0
-48 -21 0
-48 -22 0
-48 -23 0
-45 -26 0
-45 -27 0
-45 -28 0
-46 -25 0
-46 -27 0
-46 -28 0
-47 -25 0
-47 -26 0
-47 -28 0
-48 -25 0
-48 -26 0
-48 -27 0
-45 -30 0
-45 -31 0
-45 -32 0
-46 -29 0
-46 -31 0
-46 -32 0
-47 -29 0
-47 -30 0
-47 -32 0
-48 -29 0
-48 -30 0
-48 -31 0
-45 -34 0
-45 -35 0
-45 -36 0
-46 -33 0
-46 -35 0
-46 -36 0
-47 -33 0
-47 -34 0
-47 -36 0
-48 -33 0
-48 -34 0
-48 -35 0
-49 -18 0
-49 -19 0
-49 -20 0
-50 -17 0
-50 -19 0
-50 -20 0
-51 -17 0
-51 -18 0
-51 -20 0
-52 -17 0
-52 -18 0
-52 -19 0
-49 -22 0
-49 -23 0
-49 -24 0
-50 -21 0
-50 -23 0
-50 -24 0
-51 -21 0
-51 -22 0
-51 -24 0
-52 -21 0
-52 -22 0
-52 -23 0
-49 -26 0
-49 -27 0
-49 -28 0
-50 -25 0
-50 -27 0
-50 -28 0
-51 -25 0
-51 -26 0
-51 -28 0
-52 -25 0
-52 -26 0
-52 -27 0
-49 -30 0
-49 -31 0
-49 -32 0
-50 -29 0
-50 -31 0
-50 -32 0
-51 -29 0
-51 -30 0
-51 -32 0
-52 -29 0
-52 -30 0
-52 -31 0
-49 -34 0
-49 -35 0
-49 -36 0
-50 -33 0
-50 -35 0
-50 -36 0
-51 -33 0
-51 -34 0
-51 -36 0
-52 -33 0
-52 -34 0
-52 -35 0
-53 -22 0
-53 -23 0
-53 -24 0
-54 -21 0
-54 -23 0
-54 -24 0
-55 -21 0
-55 -22 0
-55 -24 0
-56 -21 0
-56 -22 0
-56 -23 0
-53 -26 0
-53 -27 0
-53 -28 0
-54 -25 0
-54 -27 0
-54 -28 0
-55 -25 0
-55 -26 0
-55 -28 0
-56 -25 0
-56 -26 0
-56 -27 0
-53 -30 0
-53 -31 0
-53 -32 0
-54 -29 0
-54 -31 0
-54 -32 0
-55 -29 0
-55 -30 0
-55 -32 0
-56 -29 0
-56 -30 0
-56 -31 0
-53 -34 0
-53 -35 0
-53 -36 0
-54 -33 0
-54 -35 0
-54 -36 0
-55 -33 0
-55 -34 0
-55 -36 0
-56 -33 0
-56 -34 0
-56 -35 0
-57 -26 0
-57 -27 0
-57 -28 0
-58 -25 0
-58 -27 0
-58 -28 0
-59 -25 0
-59 -26 0
-59 -28 0
-60 -25 0
-60 -26 0
-60 -27 0
-57 -30 0
-57 -31 0
-57 -32 0
-58 -29 0
-58 -31 0
-58 -32 0
-59 -29 0
-59 -30 0
-59 -32 0
-60 -29 0
-60 -30 0
-60 -31 0
-57 -34 0
-57 -35 0
-57 -36 0
-58 -33 0
-58 -35 0
-58 -36 0
-59 -33 0
-59 -34 0
-59 -36 0
-60 -33 0
-60 -34 0
-60 -35 0
-61 -30 0
-61 -31 0
-61 -32 0
-62 -29 0
-62 -31 0
-62 -32 0
-63 -29 0
-63 -30 0
-63 -32 0
-64 -29 0
-64 -30 0
-64 -31 0
-61 -34 0
-61 -35 0
-61 -36 0
-62 -33 0
-62 -35 0
-62 -36 0
-63 -33 0
-63 -34 0
-63 -36 0
-64 -33 0
-64 -34 0
-64 -35 0
-65 -34 0
-65 -35 0
-65 -36 0
-66 -33 0
-66 -35 0
-66 -36 0
-67 -33 0
-67 -34 0
-67 -36 0
-68 -33 0
-68 -34 0
-68 -35 0
-73 -6 0
-73 -7 0
-73 -8 0
-74 -5 0
-74 -7 0
-74 -8 0
-75 -5 0
-75 -6 0
-75 -8 0
-76 -5 0
-76 -6 0
-76 -7 0
-73 -10 0
-73 -11 0
-73 -12 0
-74 -9 0
-74 -11 0
-74 -12 0
-75 -9 0
-75 -10 0
-75 -12 0
-76 -9 0
-76 -10 0
-76 -11 0
-73 -14 0
-73 -15 0
-73 -16 0
-74 -13 0
-74 -15 0
-74 -16 0
-75 -13 0
-75 -14 0
-75 -16 0
-76 -13 0
-76 -14 0
-76 -15 0
-73 -18 0
-73 -19 0
-73 -20 0
-74 -17 0
-74 -19 0
-74 -20 0
-75 -17 0
-75 -18 0
-75 -20 0
-76 -17 0
-76 -18 0
-76 -19 0
-73 -22 0
-73 -23 0
-73 -24 0
-74 -21 0
-74 -23 0
-74 -24 0
-75 -21 0
-75 -22 0
-75 -24 0
-76 -21 0
-76 -22 0
-76 -23 0
-73 -26 0
-73 -27 0
-73 -28 0
-74 -25 0
-74 -27 0
-74 -28 0
-75 -25 0
-75 -26 0
-75 -28 0
-76 -25 0
-76 -26 0
-76 -27 0
-73 -30 0
-73 -31 0
-73 -32 0
-74 -29 0
-74 -31 0
-74 -32 0
-75 -29 0
-75 -30 0
-75 -32 0
-76 -29 0
-76 -30 0
-76 -31 0
-73 -34 0
-73 -35 0
-73 -36 0
-74 -33 0
-74 -35 0
-74 -36 0
-75 -33 0
-75 -34 0
-75 -36 0
-76 -33 0
-76 -34 0
-76 -35 0
-77 -10 0
-77 -11 0
-77 -12 0
-78 -9 0
-78 -11 0
-78 -12 0
-79 -9 0
-79 -10 0
-79 -12 0
-80 -9 0
-80 -10 0
-80 -11 0
-77 -14 0
-77 -15 0
-77 -16 0
-78 -13 0
-78 -15 0
-78 -16 0
-79 -13 0
-79 -14 0
-79 -16 0
-80 -13 0
-80 -14 0
-80 -15 0
-77 -18 0
-77 -19 0
-77 -20 0
-78 -17 0
-78 -19 0
-78 -20 0
-79 -17 0
-79 -18 0
-79 -20 0
-80 -17 0
-80 -18 0
-80 -19 0
-77 -22 0
-77 -23 0
-77 -24 0
-78 -21 0
-78 -23 0
-78 -24 0
-79 -21 0
-79 -22 0
-79 -24 0
-80 -21 0
-80 -22 0
-80 -23 0
-77 -26 0
-77 -27 0
-77 -28 0
-78 -25 0
-78 -27 0
-78 -28 0
-79 -25 0
-79 -26 0
-79 -28 0
-80 -25 0
-80 -26 0
-80 -27 0
-77 -30 0
-77 -31 0
-77 -32 0
-78 -29 0
-78 -31 0
-78 -32 0
-79 -29 0
-79 -30 0
-79 -32 0
-80 -29 0
-80 -30 0
-80 -31 0
-77 -34 0
-77 -35 0
-77 -36 0
-78 -33 0
-78 -35 0
-78 -36 0
-79 -33 0
-79 -34 0
-79 -36 0
-80 -33 0
-80 -34 0
-80 -35 0
-81 -14 0
-81 -15 0
-81 -16 0
-82 -13 0
-82 -15 0
-82 -16 0
-83 -13 0
-83 -14 0
-83 -16 0
-84 -13 0
-84 -14 0
-84 -15 0
-81 -18 0
-81 -19 0
-81 -20 0
-82 -17 0
-82 -19 0
-82 -20 0
-83 -17 0
-83 -18 0
-83 -20 0
-84 -17 0
-84 -18 0
-84 -19 0
-81 -22 0
-81 -23 0
-81 -24 0
-82 -21 0
-82 -23 0
-82 -24 0
-83 -21 0
-83 -22 0
-83 -24 0
-84 -21 0
-84 -22 0
-84 -23 0
-81 -26 0
-81 -27 0
-81 -28 0
-82 -25 0
-82 -27 0
-82 -28 0
-83 -25 0
-83 -26 0
-83 -28 0
-84 -25 0
-84 -26 0
-84 -27 0
-81 -30 0
-81 -31 0
-81 -32 0
-82 -29 0
-82 -31 0
-82 -32 0
-83 -29 0
-83 -30 0
-83 -32 0
-84 -29 0
-84 -30 0
-84 -31 0
-81 -34 0
-81 -35 0
-81 -36 0
-82 -33 0
-82 -35 0
-82 -36 0
-83 -33 0
-83 -34 0
-83 -36 0
-84 -33 0
-84 -34 0
-84 -35 0
-85 -18 0
-85 -19 0
-85 -20 0
-86 -17 0
-86 -19 0
-86 -20 0
-87 -17 0
-87 -18 0
-87 -20 0
-88 -17 0
-88 -18 0
-88 -19 0
-85 -22 0
-85 -23 0
-85 -24 0
-86 -21 0
-86 -23 0
-86 -24 0
-87 -21 0
-87 -22 0
-87 -24 0
-88 -21 0
-88 -22 0
-88 -23 0
-85 -26 0
-85 -27 0
-85 -28 0
-86 -25 0
-86 -27 0
-86 -28 0
-87 -25 0
-87 -26 0
-87 -28 0
-88 -25 0
-88 -26 0
-88 -27 0
-85 -30 0
-85 -31 0
-85 -32 0
-86 -29 0
-86 -31 0
-86 -32 0
-87 -29 0
-87 -30 0
-87 -32 0
-88 -29 0
-88 -30 0
-88 -31 0
-85 -34 0
-85 -35 0
-85 -36 0
-86 -33 0
-86 -35 0
-86 -36 0
-87 -33 0
-87 -34 0
-87 -36 0
-88 -33 0
-88 -34 0
-88 -35 0
-89 -22 0
-89 -23 0
-89 -24 0
-90 -21 0
-90 -23 0
-90 -24 0
-91 -21 0
-91 -22 0
-91 -24 0
-92 -21 0
-92 -22 0
-92 -23 0
-89 -26 0
-89 -27 0
-89 -28 0
-90 -25 0
-90 -27 0
-90 -28 0
-91 -25 0
-91 -26 0
-91 -28 0
-92 -25 0
-92 -26 0
-92 -27 0
-89 -30 0
-89 -31 0
-89 -32 0
-90 -29 0
-90 -31 0
-90 -32 0
-91 -29 0
-91 -30 0
-91 -32 0
-92 -29 0
-92 -30 0
-92 -31 0
-89 -34 0
-89 -35 0
-89 -36 0
-90 -33 0
-90 -35 0
-90 -36 0
-91 -33 0
-91 -34 0
-91 -36 0
-92 -33 0
-92 -34 0
-92 -35 0
-93 -26 0
-93 -27 0
-93 -28 0
-94 -25 0
-94 -27 0
-94 -28 0
-95 -25 0
-95 -26 0
-95 -28 0
-96 -25 0
-96 -26 0
-96 -27 0
-93 -30 0
-93 -31 0
-93 -32 0
-94 -29 0
-94 -31 0
-94 -32 0
-95 -29 0
-95 -30 0
-95 -32 0
-96 -29 0
-96 -30 0
-96 -31 0
-93 -34 0
-93 -35 0
-93 -36 0
-94 -33 0
-94 -35 0
-94 -36 0
-95 -33 0
-95 -34 0
-95 -36 0
-96 -33 0
-96 -34 0
-96 -35 0
-97 -30 0
-97 -31 0
-97 -32 0
-98 -29 0
-98 -31 0
-98 -32 0
-99 -29 0
-99 -30 0
-99 -32 0
-100 -29 0
-100 -30 0
-100 -31 0
-97 -34 0
-97 -35 0
-97 -36 0
-98 -33 0
-98 -35 0
-98 -36 0
-99 -33 0
-99 -34 0
-99 -36 0
-100 -33 0
-100 -34 0
-100 -35 0
-101 -34 0
-101 -35 0
-101 -36 0
-102 -33 0
-102 -35 0
-102 -36 0
-103 -33 0
-103 -34 0
-103 -36 0
-104 -33 0
-104 -34 0
-104 -35 0
-1 -5 0
-1 -9 0
-1 -13 0
-1 -17 0
-1 -21 0
-1 -25 0
-1 -29 0
-1 -33 0
-2 -6 0
-2 -10 0
-2 -14 0
-2 -18 0
-2 -22 0
-2 -26 0
-2 -30 0
-2 -34 0
-3 -7 0
-3 -11 0
-3 -15 0
-3 -19 0
-3 -23 0
-3 -27 0
-3 -31 0
-3 -35 0
-4 -8 0
-4 -12 0
-4 -16 0
-4 -20 0
-4 -24 0
-4 -28 0
-4 -32 0
-4 -36 0
-5 -9 0
-5 -13 0
-5 -17 0
-5 -21 0
-5 -25 0
-5 -29 0
-5 -33 0
-6 -10 0
-6 -14 0
-6 -18 0
-6 -22 0
-6 -26 0
-6 -30 0
-6 -34 0
-7 -11 0
-7 -15 0
-7 -19 0
-7 -23 0
-7 -27 0
-7 -31 0
-7 -35 0
-8 -12 0
-8 -16 0
-8 -20 0
-8 -24 0
-8 -28 0
-8 -32 0
-8 -36 0
-9 -13 0
-9 -17 0
-9 -21 0
-9 -25 0
-9 -29 0
-9 -33 0
-10 -14 0
-10 -18 0
-10 -22 0
-10 -26 0
-10 -30 0
-10 -34 0
-11 -15 0
-11 -19 0
-11 -23 0
-11 -27 0
-11 -31 0
-11 -35 0
-12 -16 0
-12 -20 0
-12 -24 0
-12 -28 0
-12 -32 0
-12 -36 0
-13 -17 0
-13 -21 0
-13 -25 0
-13 -29 0
-13 -33 0
-14 -18 0
-14 -22 0
-14 -26 0
-14 -30 0
-14 -34 0
-15 -19 0
-15 -23 0
-15 -27 0
-15 -31 0
-15 -35 0
-16 -20 0
-16 -24 0
-16 -28 0
-16 -32 0
-16 -36 0
-17 -21 0
-17 -25 0
-17 -29 0
-17 -33 0
-18 -22 0
-18 -26 0
-18 -30 0
-18 -34 0
-19 -23 0
-19 -27 0
-19 -31 0
-19 -35 0
-20 -24 0
-20 -28 0
-20 -32 0
-20 -36 0
-21 -25 0
-21 -29 0
-21 -33 0
-22 -26 0
-22 -30 0
-22 -34 0
-23 -27 0
-23 -31 0
-23 -35 0
-24 -28 0
-24 -32 0
-24 -36 0
-25 -29 0
-25 -33 0
-26 -30 0
-26 -34 0
-27 -31 0
-27 -35 0
-28 -32 0
-28 -36 0
-29 -33 0
-30 -34 0
-31 -35 0
-32 -36 0
-1 -2 0
-1 -3 0
-1 -4 0
-2 -3 0
-2 -4 0
-3 -4 0
-5 -6 0
-5 -7 0
-5 -8 0
-6 -7 0
-6 -8 0
-7 -8 0
-9 -10 0
-9 -11 0
-9 -12 0
-10 -11 0
-10 -12 0
-11 -12 0
-13 -14 0
-13 -15 0
-13 -16 0
-14 -15 0
-14 -16 0
-15 -16 0
-17 -18 0
-17 -19 0
-17 -20 0
-18 -19 0
-18 -20 0
-19 -20 0
-21 -22 0
-21 -23 0
-21 -24 0
-22 -23 0
-22 -24 0
-23 -24 0
-25 -26 0
-25 -27 0
-25 -28 0
-26 -27 0
-26 -28 0
-27 -28 0
-29 -30 0
-29 -31 0
-29 -32 0
-30 -31 0
-30 -32 0
-31 -32 0
-33 -34 0
-33 -35 0
-33 -36 0
-34 -35 0
-34 -36 0
-35 -36 0
